100 100
25 46
13 14
47 44
1 18
46 10
44 47
10 23
19 3
42 21
15 41
30 3
25 46
43 29
50 6
37 5
7 18
5 13
42 41
30 36
50 46
23 39
48 30
24 39
22 46
4 35
29 27
11 37
35 48
40 29
13 46
39 29
22 5
18 12
49 17
7 28
27 21
6 6
10 17
6 26
33 49
23 39
9 24
39 11
10 34
41 16
3 32
34 10
38 44
25 40
22 25
6 1
44 30
19 48
6 12
5 12
16 25
25 32
49 26
20 38
42 16
7 38
42 39
14 26
1 20
17 27
49 38
44 17
12 22
34 38
9 18
19 26
2 10
22 49
33 4
27 46
26 3
16 20
45 37
24 48
10 9
21 31
5 24
41 31
47 42
31 14
49 6
5 24
5 11
39 31
14 31
36 40
33 42
41 35
13 32
47 48
26 44
22 35
2 19
47 3
14 45
